Gurobi Optimizer version 9.1.2 build v9.1.2rc0 (linux64)
Thread count: 36 physical cores, 72 logical processors, using up to 32 threads
Optimize a model with 12 rows, 57 columns and 590 nonzeros
Model fingerprint: 0xf32eec78
Model has 47 quadratic constraints
Coefficient statistics:
  Matrix range     [2e-05, 3e+00]
  QMatrix range    [1e+00, 1e+00]
  QLMatrix range   [1e+00, 1e+00]
  Objective range  [8e-03, 7e-01]
  Bounds range     [1e+00, 1e+00]
  RHS range        [1e+00, 1e+00]
Presolve removed 9 rows and 0 columns

Continuous model is non-convex -- solving as a MIP.

Presolve removed 9 rows and 0 columns
Presolve time: 0.00s
Presolved: 189 rows, 57 columns, 443 nonzeros
Presolved model has 47 bilinear constraint(s)
Variable types: 57 continuous, 0 integer (0 binary)

Root relaxation: objective -1.743721e+00, 44 iterations, 0.00 seconds

    Nodes    |    Current Node    |     Objective Bounds      |     Work
 Expl Unexpl |  Obj  Depth IntInf | Incumbent    BestBd   Gap | It/Node Time

     0     0   -1.74372    0   38          -   -1.74372      -     -    0s
H    0     0                       0.6147548   -1.74372   384%     -    0s
     0     0   -1.64739    0    1    0.61475   -1.64739   368%     -    0s
H    0     0                      -1.6450460   -1.64739  0.14%     -    0s
     0     0     cutoff    0        -1.64505   -1.64505  0.00%     -    0s

Cutting planes:
  RLT: 25
  BQP: 3

Explored 1 nodes (76 simplex iterations) in 0.01 seconds
Thread count was 32 (of 72 available processors)

Solution count 2: -1.64505 0.614755 
No other solutions better than -1.64505

Optimal solution found (tolerance 1.00e-04)
Best objective -1.645045978473e+00, best bound -1.645045978473e+00, gap 0.0000%

User-callback calls 78, time in user-callback 0.00 sec
Gurobi Optimizer version 9.1.2 build v9.1.2rc0 (linux64)
Thread count: 36 physical cores, 72 logical processors, using up to 32 threads
Optimize a model with 60 rows, 312 columns and 16100 nonzeros
Model fingerprint: 0x6a4204ea
Model has 262 quadratic constraints
Coefficient statistics:
  Matrix range     [4e-07, 7e+00]
  QMatrix range    [1e+00, 1e+00]
  QLMatrix range   [1e+00, 1e+00]
  Objective range  [2e-03, 8e-01]
  Bounds range     [1e+00, 1e+00]
  RHS range        [1e+00, 1e+00]
Presolve removed 14 rows and 0 columns

Continuous model is non-convex -- solving as a MIP.

Presolve removed 14 rows and 0 columns
Presolve time: 0.01s
Presolved: 1082 rows, 312 columns, 13758 nonzeros
Presolved model has 262 bilinear constraint(s)
Variable types: 312 continuous, 0 integer (0 binary)

Root relaxation: objective -1.708884e+01, 350 iterations, 0.02 seconds

    Nodes    |    Current Node    |     Objective Bounds      |     Work
 Expl Unexpl |  Obj  Depth IntInf | Incumbent    BestBd   Gap | It/Node Time

     0     0  -17.08884    0  175          -  -17.08884      -     -    0s
     0     0  -16.64028    0   38          -  -16.64028      -     -    0s
     0     0  -16.62061    0   38          -  -16.62061      -     -    0s
     0     0  -16.51907    0   27          -  -16.51907      -     -    0s
     0     0  -16.49031    0   34          -  -16.49031      -     -    0s
     0     0  -16.48840    0   44          -  -16.48840      -     -    0s
     0     0  -16.48801    0   44          -  -16.48801      -     -    0s
     0     0  -16.48758    0   29          -  -16.48758      -     -    0s
     0     0  -16.48605    0   29          -  -16.48605      -     -    0s
     0     0  -16.48569    0   34          -  -16.48569      -     -    0s
     0     0  -16.48562    0   44          -  -16.48562      -     -    0s
     0     2  -16.48562    0   44          -  -16.48562      -     -    0s
* 1994  1963              50     -15.8015538  -16.11216  1.97%  33.9    1s
* 2625  1949              53     -15.9168015  -16.07463  0.99%  32.1    1s
* 5736   351              48     -15.9170626  -16.07463  0.99%  31.2    2s
* 5883   401              50     -15.9170773  -16.07463  0.99%  30.9    2s
* 6039   469              45     -15.9171458  -16.07463  0.99%  30.6    3s
* 6040   469              45     -15.9171483  -16.07463  0.99%  30.6    3s
* 6042   469              45     -15.9171759  -16.07463  0.99%  30.6    3s
* 6213   514              46     -15.9171762  -16.07463  0.99%  30.3    3s
* 6516   671              45     -15.9173078  -16.07463  0.99%  29.6    3s
* 6518   671              46     -15.9173157  -16.07463  0.99%  29.6    3s
* 6520   671              44     -15.9173535  -16.07463  0.99%  29.6    3s
* 6763   740              56     -15.9174002  -16.07463  0.99%  29.0    3s
* 6764   740              56     -15.9174079  -16.07463  0.99%  29.0    3s
* 6852   823              82     -15.9180011  -16.07463  0.98%  28.8    3s
* 6887   823              65     -15.9259507  -16.07463  0.93%  28.7    3s
* 6891   823              66     -15.9259569  -16.07463  0.93%  28.7    3s
* 7950  1023              69     -15.9387816  -16.07463  0.85%  26.9    3s
* 9669  1218              59     -15.9388627  -16.00986  0.45%  24.9    3s
* 9671  1218              60     -15.9388650  -16.00986  0.45%  24.9    3s
* 9886  1355              56     -15.9388738  -16.00529  0.42%  24.6    4s
* 9949  1355              67     -15.9390334  -16.00529  0.42%  24.5    4s
* 9950  1355              67     -15.9390403  -16.00529  0.42%  24.5    4s
*10255  1505              67     -15.9414403  -16.00529  0.40%  24.0    4s
*11727  1663              59     -15.9415261  -15.99207  0.32%  22.4    4s
*11750  1663              58     -15.9425693  -15.99207  0.31%  22.3    4s
*12921  1714              60     -15.9426002  -15.96763  0.16%  21.3    4s
*12923  1714              61     -15.9426009  -15.96763  0.16%  21.3    4s
*13052  1714              55     -15.9426794  -15.96763  0.16%  21.1    4s
*13053  1714              55     -15.9426902  -15.96763  0.16%  21.1    4s
*13219  1714              57     -15.9428556  -15.96763  0.16%  21.0    4s
 14279  1728  -15.94542   37   19  -15.94286  -15.95351  0.07%  20.2    5s
*15162  1813              59     -15.9428859  -15.94957  0.04%  19.6    5s
*15163  1813              59     -15.9428898  -15.94957  0.04%  19.6    5s
*15824  1897              57     -15.9429125  -15.94887  0.04%  19.2    5s
*15826  1897              56     -15.9429165  -15.94887  0.04%  19.2    5s
*16786  1930              62     -15.9429692  -15.94812  0.03%  18.6    5s
*16801  1930              64     -15.9429703  -15.94812  0.03%  18.6    5s
*16877  1930              59     -15.9430426  -15.94812  0.03%  18.5    5s
*16936  1930              60     -15.9431781  -15.94812  0.03%  18.5    5s
*16938  1930              61     -15.9432016  -15.94812  0.03%  18.5    5s
*16939  1930              61     -15.9432018  -15.94812  0.03%  18.5    5s
*16941  1930              60     -15.9432086  -15.94812  0.03%  18.5    5s
*17102  1930              56     -15.9439130  -15.94812  0.03%  18.4    5s
*17317  1630              64     -15.9439238  -15.94775  0.02%  18.3    5s
*18122  1630              58     -15.9439824  -15.94775  0.02%  17.7    5s
*18161  1640              67     -15.9440185  -15.94743  0.02%  17.7    5s
*18164  1640              67     -15.9440193  -15.94743  0.02%  17.7    5s
*18230  1640              58     -15.9440804  -15.94743  0.02%  17.7    5s
*18490  1640              63     -15.9441675  -15.94743  0.02%  17.5    5s
*19210   926              62     -15.9441792  -15.94548  0.01%  17.0    5s
*19212   926              61     -15.9441859  -15.94548  0.01%  17.0    5s

Explored 20125 nodes (330388 simplex iterations) in 5.91 seconds
Thread count was 32 (of 72 available processors)

Solution count 10: -15.9442 -15.9442 -15.9442 ... -15.9432

Optimal solution found (tolerance 1.00e-04)
Best objective -1.594418586356e+01, best bound -1.594454308624e+01, gap 0.0022%

User-callback calls 41171, time in user-callback 0.01 sec



objective value: -15.944185863561314
objective bound: -15.94454308624104
x_opt: [0.9998459015407942, 1.0, 0.0, 0.24478151130443296, 0.0, 0.0, 1.0, 0.0, 0.0, 0.0, 1.0, 0.0, 1.0, 1.0, 0.08099956600057928, 1.0, 0.0, 1.0, 0.0, 0.0, 0.7808492177137478, 0.7191171656938257, 0.0, 0.7761996582458512, 0.0, 0.7171464476513225, 0.0, 1.0, 0.0, 0.0, 1.0, 0.8810087450337923, 0.0, 0.2990514629977343, 1.0, 1.0, 0.17787100844924353, 1.0, 0.0, 0.874570104325491, 1.0, 0.0, 1.0, 0.0, 0.0, 0.0, 0.8287478872931935, 0.0, 1.0, 0.026931426636930985]
GUROBI solution time: 5.9113311767578125




